p cnf 1357
-19 -425
-20 -428
-21 -431
-22 -434
-23 -437
-24 -440
-25 -443
-26 -446
-27 -449
-28 -452
-29 -455
-30 -458
-31 -461
-32 -464
-33 -467
-34 -470
-35 -473
-36 -476
-37 477
-38 478
-39 479
-40 480
-41 481
-42 482
-43 483
-44 484
-45 485
-46 486
-47 487
-48 488
-49 -20
-49 -21
20 21 49
-50 -22
-50 -23
22 23 50
-51 -24
-51 -25
24 25 51
-52 -26
-52 -27
26 27 52
-53 -28
-53 -29
28 29 53
-54 -30
-54 -31
30 31 54
-55 -32
-55 -33
32 33 55
-56 -34
-56 -35
34 35 56
-57 -36
-57 -37
36 37 57
-58 -38
-58 -39
38 39 58
-59 -40
-59 -41
40 41 59
-60 -42
-60 -43
42 43 60
-61 -44
-61 -45
44 45 61
-62 -46
-62 -47
46 47 62
-63 49
-63 50
-49 -50 63
-64 51
-64 52
-51 -52 64
-65 53
-65 54
-53 -54 65
-66 55
-66 56
-55 -56 66
-67 57
-67 58
-57 -58 67
-68 59
-68 60
-59 -60 68
-69 61
-69 62
-61 -62 69
-70 63
-70 64
-63 -64 70
-71 65
-71 66
-65 -66 71
-72 67
-72 68
-67 -68 72
-73 -48
-73 69
48 -69 73
-74 70
-74 71
-70 -71 74
-75 72
-75 73
-72 -73 75
-76 74
-76 75
-74 -75 76
-77 -19
-77 20
19 -20 77
-78 19
-78 -20
-19 20 78
-79 -77
-79 -78
77 78 79
-80 19
-80 20
-19 -20 80
-81 -19
-81 -79
19 79 81
-82 19
-82 79
-19 -79 82
-83 -81
-83 -82
81 82 83
-84 19
-84 -79
-19 79 84
-85 -80
-85 -84
80 84 85
-86 -20
-86 21
20 -21 86
-87 20
-87 -21
-20 21 87
-88 -86
-88 -87
86 87 88
-89 20
-89 21
-20 -21 89
-90 85
-90 -88
-85 88 90
-91 -85
-91 88
85 -88 91
-92 -90
-92 -91
90 91 92
-93 -85
-93 -88
85 88 93
-94 -89
-94 -93
89 93 94
-95 -21
-95 22
21 -22 95
-96 21
-96 -22
-21 22 96
-97 -95
-97 -96
95 96 97
-98 21
-98 22
-21 -22 98
-99 94
-99 -97
-94 97 99
-100 -94
-100 97
94 -97 100
-101 -99
-101 -100
99 100 101
-102 -94
-102 -97
94 97 102
-103 -98
-103 -102
98 102 103
-104 -22
-104 23
22 -23 104
-105 22
-105 -23
-22 23 105
-106 -104
-106 -105
104 105 106
-107 22
-107 23
-22 -23 107
-108 103
-108 -106
-103 106 108
-109 -103
-109 106
103 -106 109
-110 -108
-110 -109
108 109 110
-111 -103
-111 -106
103 106 111
-112 -107
-112 -111
107 111 112
-113 -23
-113 24
23 -24 113
-114 23
-114 -24
-23 24 114
-115 -113
-115 -114
113 114 115
-116 23
-116 24
-23 -24 116
-117 112
-117 -115
-112 115 117
-118 -112
-118 115
112 -115 118
-119 -117
-119 -118
117 118 119
-120 -112
-120 -115
112 115 120
-121 -116
-121 -120
116 120 121
-122 -24
-122 25
24 -25 122
-123 24
-123 -25
-24 25 123
-124 -122
-124 -123
122 123 124
-125 24
-125 25
-24 -25 125
-126 121
-126 -124
-121 124 126
-127 -121
-127 124
121 -124 127
-128 -126
-128 -127
126 127 128
-129 -121
-129 -124
121 124 129
-130 -125
-130 -129
125 129 130
-131 -25
-131 26
25 -26 131
-132 25
-132 -26
-25 26 132
-133 -131
-133 -132
131 132 133
-134 25
-134 26
-25 -26 134
-135 130
-135 -133
-130 133 135
-136 -130
-136 133
130 -133 136
-137 -135
-137 -136
135 136 137
-138 -130
-138 -133
130 133 138
-139 -134
-139 -138
134 138 139
-140 -26
-140 27
26 -27 140
-141 26
-141 -27
-26 27 141
-142 -140
-142 -141
140 141 142
-143 26
-143 27
-26 -27 143
-144 139
-144 -142
-139 142 144
-145 -139
-145 142
139 -142 145
-146 -144
-146 -145
144 145 146
-147 -139
-147 -142
139 142 147
-148 -143
-148 -147
143 147 148
-149 -27
-149 28
27 -28 149
-150 27
-150 -28
-27 28 150
-151 -149
-151 -150
149 150 151
-152 27
-152 28
-27 -28 152
-153 148
-153 -151
-148 151 153
-154 -148
-154 151
148 -151 154
-155 -153
-155 -154
153 154 155
-156 -148
-156 -151
148 151 156
-157 -152
-157 -156
152 156 157
-158 -28
-158 29
28 -29 158
-159 28
-159 -29
-28 29 159
-160 -158
-160 -159
158 159 160
-161 28
-161 29
-28 -29 161
-162 157
-162 -160
-157 160 162
-163 -157
-163 160
157 -160 163
-164 -162
-164 -163
162 163 164
-165 -157
-165 -160
157 160 165
-166 -161
-166 -165
161 165 166
-167 -29
-167 30
29 -30 167
-168 29
-168 -30
-29 30 168
-169 -167
-169 -168
167 168 169
-170 29
-170 30
-29 -30 170
-171 166
-171 -169
-166 169 171
-172 -166
-172 169
166 -169 172
-173 -171
-173 -172
171 172 173
-174 -166
-174 -169
166 169 174
-175 -170
-175 -174
170 174 175
-176 -30
-176 31
30 -31 176
-177 30
-177 -31
-30 31 177
-178 -176
-178 -177
176 177 178
-179 30
-179 31
-30 -31 179
-180 175
-180 -178
-175 178 180
-181 -175
-181 178
175 -178 181
-182 -180
-182 -181
180 181 182
-183 -175
-183 -178
175 178 183
-184 -179
-184 -183
179 183 184
-185 -31
-185 32
31 -32 185
-186 31
-186 -32
-31 32 186
-187 -185
-187 -186
185 186 187
-188 31
-188 32
-31 -32 188
-189 184
-189 -187
-184 187 189
-190 -184
-190 187
184 -187 190
-191 -189
-191 -190
189 190 191
-192 -184
-192 -187
184 187 192
-193 -188
-193 -192
188 192 193
-194 -32
-194 33
32 -33 194
-195 32
-195 -33
-32 33 195
-196 -194
-196 -195
194 195 196
-197 32
-197 33
-32 -33 197
-198 193
-198 -196
-193 196 198
-199 -193
-199 196
193 -196 199
-200 -198
-200 -199
198 199 200
-201 -193
-201 -196
193 196 201
-202 -197
-202 -201
197 201 202
-203 -33
-203 34
33 -34 203
-204 33
-204 -34
-33 34 204
-205 -203
-205 -204
203 204 205
-206 33
-206 34
-33 -34 206
-207 202
-207 -205
-202 205 207
-208 -202
-208 205
202 -205 208
-209 -207
-209 -208
207 208 209
-210 -202
-210 -205
202 205 210
-211 -206
-211 -210
206 210 211
-212 -34
-212 35
34 -35 212
-213 34
-213 -35
-34 35 213
-214 -212
-214 -213
212 213 214
-215 34
-215 35
-34 -35 215
-216 211
-216 -214
-211 214 216
-217 -211
-217 214
211 -214 217
-218 -216
-218 -217
216 217 218
-219 -211
-219 -214
211 214 219
-220 -215
-220 -219
215 219 220
-221 -35
-221 36
35 -36 221
-222 35
-222 -36
-35 36 222
-223 -221
-223 -222
221 222 223
-224 35
-224 36
-35 -36 224
-225 220
-225 -223
-220 223 225
-226 -220
-226 223
220 -223 226
-227 -225
-227 -226
225 226 227
-228 -220
-228 -223
220 223 228
-229 -224
-229 -228
224 228 229
-230 -36
-230 37
36 -37 230
-231 36
-231 -37
-36 37 231
-232 -230
-232 -231
230 231 232
-233 36
-233 37
-36 -37 233
-234 229
-234 -232
-229 232 234
-235 -229
-235 232
229 -232 235
-236 -234
-236 -235
234 235 236
-237 -229
-237 -232
229 232 237
-238 -233
-238 -237
233 237 238
-239 -37
-239 38
37 -38 239
-240 37
-240 -38
-37 38 240
-241 -239
-241 -240
239 240 241
-242 37
-242 38
-37 -38 242
-243 238
-243 -241
-238 241 243
-244 -238
-244 241
238 -241 244
-245 -243
-245 -244
243 244 245
-246 -238
-246 -241
238 241 246
-247 -242
-247 -246
242 246 247
-248 -38
-248 39
38 -39 248
-249 38
-249 -39
-38 39 249
-250 -248
-250 -249
248 249 250
-251 38
-251 39
-38 -39 251
-252 247
-252 -250
-247 250 252
-253 -247
-253 250
247 -250 253
-254 -252
-254 -253
252 253 254
-255 -247
-255 -250
247 250 255
-256 -251
-256 -255
251 255 256
-257 -39
-257 40
39 -40 257
-258 39
-258 -40
-39 40 258
-259 -257
-259 -258
257 258 259
-260 39
-260 40
-39 -40 260
-261 256
-261 -259
-256 259 261
-262 -256
-262 259
256 -259 262
-263 -261
-263 -262
261 262 263
-264 -256
-264 -259
256 259 264
-265 -260
-265 -264
260 264 265
-266 -40
-266 41
40 -41 266
-267 40
-267 -41
-40 41 267
-268 -266
-268 -267
266 267 268
-269 40
-269 41
-40 -41 269
-270 265
-270 -268
-265 268 270
-271 -265
-271 268
265 -268 271
-272 -270
-272 -271
270 271 272
-273 -265
-273 -268
265 268 273
-274 -269
-274 -273
269 273 274
-275 -41
-275 42
41 -42 275
-276 41
-276 -42
-41 42 276
-277 -275
-277 -276
275 276 277
-278 41
-278 42
-41 -42 278
-279 274
-279 -277
-274 277 279
-280 -274
-280 277
274 -277 280
-281 -279
-281 -280
279 280 281
-282 -274
-282 -277
274 277 282
-283 -278
-283 -282
278 282 283
-284 -42
-284 43
42 -43 284
-285 42
-285 -43
-42 43 285
-286 -284
-286 -285
284 285 286
-287 42
-287 43
-42 -43 287
-288 283
-288 -286
-283 286 288
-289 -283
-289 286
283 -286 289
-290 -288
-290 -289
288 289 290
-291 -283
-291 -286
283 286 291
-292 -287
-292 -291
287 291 292
-293 -43
-293 44
43 -44 293
-294 43
-294 -44
-43 44 294
-295 -293
-295 -294
293 294 295
-296 43
-296 44
-43 -44 296
-297 292
-297 -295
-292 295 297
-298 -292
-298 295
292 -295 298
-299 -297
-299 -298
297 298 299
-300 -292
-300 -295
292 295 300
-301 -296
-301 -300
296 300 301
-302 -44
-302 45
44 -45 302
-303 44
-303 -45
-44 45 303
-304 -302
-304 -303
302 303 304
-305 44
-305 45
-44 -45 305
-306 301
-306 -304
-301 304 306
-307 -301
-307 304
301 -304 307
-308 -306
-308 -307
306 307 308
-309 -301
-309 -304
301 304 309
-310 -305
-310 -309
305 309 310
-311 -45
-311 46
45 -46 311
-312 45
-312 -46
-45 46 312
-313 -311
-313 -312
311 312 313
-314 45
-314 46
-45 -46 314
-315 310
-315 -313
-310 313 315
-316 -310
-316 313
310 -313 316
-317 -315
-317 -316
315 316 317
-318 -310
-318 -313
310 313 318
-319 -314
-319 -318
314 318 319
-320 -46
-320 47
46 -47 320
-321 46
-321 -47
-46 47 321
-322 -320
-322 -321
320 321 322
-323 46
-323 47
-46 -47 323
-324 319
-324 -322
-319 322 324
-325 -319
-325 322
319 -322 325
-326 -324
-326 -325
324 325 326
-327 -319
-327 -322
319 322 327
-328 -323
-328 -327
323 327 328
-329 -47
-329 48
47 -48 329
-330 47
-330 -48
-47 48 330
-331 -329
-331 -330
329 330 331
-332 47
-332 48
-47 -48 332
-333 328
-333 -331
-328 331 333
-334 -328
-334 331
328 -331 334
-335 -333
-335 -334
333 334 335
-336 -328
-336 -331
328 331 336
-337 -332
-337 -336
332 336 337
-338 19
-338 -83
-19 83 338
-339 -19
-339 21
19 -21 339
-340 -338
-340 -339
338 339 340
-341 19
-341 -92
-19 92 341
-342 -19
-342 22
19 -22 342
-343 -341
-343 -342
341 342 343
-344 19
-344 -101
-19 101 344
-345 -19
-345 23
19 -23 345
-346 -344
-346 -345
344 345 346
-347 19
-347 -110
-19 110 347
-348 -19
-348 24
19 -24 348
-349 -347
-349 -348
347 348 349
-350 19
-350 -119
-19 119 350
-351 -19
-351 25
19 -25 351
-352 -350
-352 -351
350 351 352
-353 19
-353 -128
-19 128 353
-354 -19
-354 26
19 -26 354
-355 -353
-355 -354
353 354 355
-356 19
-356 -137
-19 137 356
-357 -19
-357 27
19 -27 357
-358 -356
-358 -357
356 357 358
-359 19
-359 -146
-19 146 359
-360 -19
-360 28
19 -28 360
-361 -359
-361 -360
359 360 361
-362 19
-362 -155
-19 155 362
-363 -19
-363 29
19 -29 363
-364 -362
-364 -363
362 363 364
-365 19
-365 -164
-19 164 365
-366 -19
-366 30
19 -30 366
-367 -365
-367 -366
365 366 367
-368 19
-368 -173
-19 173 368
-369 -19
-369 31
19 -31 369
-370 -368
-370 -369
368 369 370
-371 19
-371 -182
-19 182 371
-372 -19
-372 32
19 -32 372
-373 -371
-373 -372
371 372 373
-374 19
-374 -191
-19 191 374
-375 -19
-375 33
19 -33 375
-376 -374
-376 -375
374 375 376
-377 19
-377 -200
-19 200 377
-378 -19
-378 34
19 -34 378
-379 -377
-379 -378
377 378 379
-380 19
-380 -209
-19 209 380
-381 -19
-381 35
19 -35 381
-382 -380
-382 -381
380 381 382
-383 19
-383 -218
-19 218 383
-384 -19
-384 36
19 -36 384
-385 -383
-385 -384
383 384 385
-386 19
-386 -227
-19 227 386
-387 -19
-387 37
19 -37 387
-388 -386
-388 -387
386 387 388
-389 19
-389 -236
-19 236 389
-390 -19
-390 38
19 -38 390
-391 -389
-391 -390
389 390 391
-392 19
-392 -245
-19 245 392
-393 -19
-393 39
19 -39 393
-394 -392
-394 -393
392 393 394
-395 19
-395 -254
-19 254 395
-396 -19
-396 40
19 -40 396
-397 -395
-397 -396
395 396 397
-398 19
-398 -263
-19 263 398
-399 -19
-399 41
19 -41 399
-400 -398
-400 -399
398 399 400
-401 19
-401 -272
-19 272 401
-402 -19
-402 42
19 -42 402
-403 -401
-403 -402
401 402 403
-404 19
-404 -281
-19 281 404
-405 -19
-405 43
19 -43 405
-406 -404
-406 -405
404 405 406
-407 19
-407 -290
-19 290 407
-408 -19
-408 44
19 -44 408
-409 -407
-409 -408
407 408 409
-410 19
-410 -299
-19 299 410
-411 -19
-411 45
19 -45 411
-412 -410
-412 -411
410 411 412
-413 19
-413 -308
-19 308 413
-414 -19
-414 46
19 -46 414
-415 -413
-415 -414
413 414 415
-416 19
-416 -317
-19 317 416
-417 -19
-417 47
19 -47 417
-418 -416
-418 -417
416 417 418
-419 19
-419 -326
-19 326 419
-420 -19
-420 48
19 -48 420
-421 -419
-421 -420
419 420 421
-422 19
-422 -335
-19 335 422
-423 1
-423 76
-1 -76 423
-424 -76
-424 77
76 -77 424
-425 -423
-425 -424
423 424 425
-426 2
-426 76
-2 -76 426
-427 -76
-427 -340
76 340 427
-428 -426
-428 -427
426 427 428
-429 3
-429 76
-3 -76 429
-430 -76
-430 -343
76 343 430
-431 -429
-431 -430
429 430 431
-432 4
-432 76
-4 -76 432
-433 -76
-433 -346
76 346 433
-434 -432
-434 -433
432 433 434
-435 5
-435 76
-5 -76 435
-436 -76
-436 -349
76 349 436
-437 -435
-437 -436
435 436 437
-438 6
-438 76
-6 -76 438
-439 -76
-439 -352
76 352 439
-440 -438
-440 -439
438 439 440
-441 7
-441 76
-7 -76 441
-442 -76
-442 -355
76 355 442
-443 -441
-443 -442
441 442 443
-444 8
-444 76
-8 -76 444
-445 -76
-445 -358
76 358 445
-446 -444
-446 -445
444 445 446
-447 9
-447 76
-9 -76 447
-448 -76
-448 -361
76 361 448
-449 -447
-449 -448
447 448 449
-450 10
-450 76
-10 -76 450
-451 -76
-451 -364
76 364 451
-452 -450
-452 -451
450 451 452
-453 11
-453 76
-11 -76 453
-454 -76
-454 -367
76 367 454
-455 -453
-455 -454
453 454 455
-456 12
-456 76
-12 -76 456
-457 -76
-457 -370
76 370 457
-458 -456
-458 -457
456 457 458
-459 13
-459 76
-13 -76 459
-460 -76
-460 -373
76 373 460
-461 -459
-461 -460
459 460 461
-462 14
-462 76
-14 -76 462
-463 -76
-463 -376
76 376 463
-464 -462
-464 -463
462 463 464
-465 15
-465 76
-15 -76 465
-466 -76
-466 -379
76 379 466
-467 -465
-467 -466
465 466 467
-468 16
-468 76
-16 -76 468
-469 -76
-469 -382
76 382 469
-470 -468
-470 -469
468 469 470
-471 17
-471 76
-17 -76 471
-472 -76
-472 -385
76 385 472
-473 -471
-473 -472
471 472 473
-474 18
-474 76
-18 -76 474
-475 -76
-475 -388
76 388 475
-476 -474
-476 -475
474 475 476
-477 -76
-477 -391
76 391 477
-478 -76
-478 -394
76 394 478
-479 -76
-479 -397
76 397 479
-480 -76
-480 -400
76 400 480
-481 -76
-481 -403
76 403 481
-482 -76
-482 -406
76 406 482
-483 -76
-483 -409
76 409 483
-484 -76
-484 -412
76 412 484
-485 -76
-485 -415
76 415 485
-486 -76
-486 -418
76 418 486
-487 -76
-487 -421
76 421 487
-488 -76
-488 422
76 -422 488
-489 -48
-489 337
48 -337 489
-490 19
-490 -489
-19 489 490
490
